* #variable= 1000 #constraint= 1
min: -438 x1 -916 x2 -450 x3 -925 x4 -336 x5 -278 x6 -497 x7 -170 x8 -394 x9 -336 x10 -856 x11 -439 x12 -475 x13 -120 x14 -906 x15 -74 x16 -851 x17 -613 x18 -496 x19 -217 x20 -722 x21 -69 x22 -137 x23 -753 x24 -970 x25 -417 x26 -786 x27 -840 x28 -211 x29 -877 x30 -843 x31 -810 x32 -707 x33 -604 x34 -446 x35 -504 x36 -359 x37 -49 x38 -412 x39 -280 x40 -579 x41 -872 x42 -806 x43 -965 x44 -970 x45 -250 x46 -629 x47 -278 x48 -83 x49 -223 x50 -270 x51 -317 x52 -208 x53 -422 x54 -326 x55 -174 x56 -844 x57 -800 x58 -509 x59 -703 x60 -416 x61 -779 x62 -90 x63 -862 x64 -634 x65 -530 x66 -755 x67 -989 x68 -362 x69 -730 x70 -407 x71 -227 x72 -930 x73 -799 x74 -387 x75 -325 x76 -242 x77 -205 x78 -229 x79 -674 x80 -173 x81 -706 x82 -184 x83 -572 x84 -124 x85 -64 x86 -156 x87 -369 x88 -77 x89 -913 x90 -753 x91 -809 x92 -512 x93 -675 x94 -552 x95 -995 x96 -405 x97 -323 x98 -94 x99 -432 x100 -453 x101 -157 x102 -254 x103 -145 x104 -563 x105 -329 x106 -866 x107 -259 x108 -191 x109 -258 x110 -142 x111 -800 x112 -167 x113 -217 x114 -209 x115 -194 x116 -530 x117 -542 x118 -944 x119 -361 x120 -419 x121 -838 x122 -289 x123 -252 x124 -198 x125 -864 x126 -369 x127 -644 x128 -474 x129 -593 x130 -50 x131 -515 x132 -771 x133 -375 x134 -973 x135 -884 x136 -106 x137 -387 x138 -840 x139 -732 x140 -980 x141 -967 x142 -932 x143 -29 x144 -628 x145 -951 x146 -789 x147 -188 x148 -70 x149 -237 x150 -87 x151 -160 x152 -881 x153 -932 x154 -921 x155 -691 x156 -759 x157 -894 x158 -57 x159 -694 x160 -636 x161 -769 x162 -996 x163 -284 x164 -505 x165 -740 x166 -160 x167 -16 x168 -580 x169 -119 x170 -128 x171 -139 x172 -214 x173 -736 x174 -434 x175 -725 x176 -376 x177 -218 x178 -217 x179 -549 x180 -731 x181 -160 x182 -267 x183 -716 x184 -91 x185 -672 x186 -438 x187 -307 x188 -102 x189 -338 x190 -323 x191 -669 x192 -455 x193 -319 x194 -631 x195 -678 x196 -338 x197 -215 x198 -218 x199 -243 x200 -483 x201 -379 x202 -534 x203 -340 x204 -80 x205 -705 x206 -694 x207 -636 x208 -471 x209 -109 x210 -832 x211 -969 x212 -685 x213 -620 x214 -569 x215 -111 x216 -541 x217 -660 x218 -731 x219 -519 x220 -41 x221 -72 x222 -885 x223 -748 x224 -503 x225 -640 x226 -511 x227 -270 x228 -179 x229 -644 x230 -833 x231 -671 x232 -485 x233 -65 x234 -743 x235 -771 x236 -207 x237 -268 x238 -787 x239 -989 x240 -150 x241 -836 x242 -631 x243 -389 x244 -906 x245 -996 x246 -149 x247 -837 x248 -907 x249 -86 x250 -269 x251 -187 x252 -618 x253 -147 x254 -106 x255 -152 x256 -993 x257 -742 x258 -953 x259 -615 x260 -920 x261 -417 x262 -575 x263 -569 x264 -357 x265 -486 x266 -310 x267 -69 x268 -247 x269 -680 x270 -124 x271 -278 x272 -471 x273 -403 x274 -449 x275 -276 x276 -172 x277 -629 x278 -890 x279 -612 x280 -737 x281 -96 x282 -39 x283 -595 x284 -189 x285 -392 x286 -509 x287 -166 x288 -7 x289 -326 x290 -744 x291 -501 x292 -4 x293 -87 x294 -745 x295 -549 x296 -439 x297 -447 x298 -632 x299 -973 x300 -811 x301 -327 x302 -775 x303 -857 x304 -200 x305 -958 x306 -314 x307 -970 x308 -928 x309 -699 x310 -398 x311 -150 x312 -20 x313 -424 x314 -5 x315 -539 x316 -448 x317 -18 x318 -827 x319 -879 x320 -423 x321 -533 x322 -289 x323 -940 x324 -796 x325 -396 x326 -908 x327 -303 x328 -551 x329 -783 x330 -440 x331 -319 x332 -633 x333 -117 x334 -718 x335 -362 x336 -172 x337 -656 x338 -239 x339 -395 x340 -241 x341 -361 x342 -988 x343 -832 x344 -959 x345 -440 x346 -676 x347 -616 x348 -205 x349 -317 x350 -601 x351 -890 x352 -164 x353 -53 x354 -431 x355 -488 x356 -836 x357 -564 x358 -290 x359 -739 x360 -313 x361 -393 x362 -763 x363 -128 x364 -634 x365 -103 x366 -638 x367 -303 x368 -303 x369 -511 x370 -723 x371 -148 x372 -788 x373 -315 x374 -79 x375 -686 x376 -806 x377 -606 x378 -55 x379 -581 x380 -464 x381 -535 x382 -897 x383 -218 x384 -370 x385 -44 x386 -414 x387 -670 x388 -415 x389 -674 x390 -984 x391 -788 x392 -714 x393 -19 x394 -572 x395 -82 x396 -189 x397 -9 x398 -355 x399 -498 x400 -805 x401 -902 x402 -651 x403 -32 x404 -813 x405 -486 x406 -5 x407 -460 x408 -725 x409 -956 x410 -123 x411 -927 x412 -710 x413 -913 x414 -864 x415 -26 x416 -45 x417 -412 x418 -515 x419 -217 x420 -498 x421 -571 x422 -810 x423 -911 x424 -189 x425 -847 x426 -543 x427 -979 x428 -764 x429 -566 x430 -417 x431 -313 x432 -826 x433 -521 x434 -690 x435 -971 x436 -319 x437 -110 x438 -136 x439 -237 x440 -360 x441 -960 x442 -939 x443 -897 x444 -987 x445 -178 x446 -114 x447 -983 x448 -762 x449 -787 x450 -738 x451 -438 x452 -553 x453 -338 x454 -51 x455 -408 x456 -893 x457 -651 x458 -97 x459 -335 x460 -443 x461 -962 x462 -844 x463 -477 x464 -603 x465 -876 x466 -356 x467 -666 x468 -287 x469 -166 x470 -206 x471 -903 x472 -731 x473 -357 x474 -443 x475 -319 x476 -555 x477 -900 x478 -659 x479 -357 x480 -947 x481 -411 x482 -989 x483 -143 x484 -983 x485 -148 x486 -793 x487 -410 x488 -224 x489 -74 x490 -653 x491 -696 x492 -256 x493 -274 x494 -936 x495 -477 x496 -322 x497 -875 x498 -94 x499 -408 x500 -457 x501 -874 x502 -417 x503 -204 x504 -707 x505 -766 x506 -248 x507 -69 x508 -777 x509 -611 x510 -255 x511 -959 x512 -270 x513 -594 x514 -314 x515 -898 x516 -377 x517 -421 x518 -103 x519 -315 x520 -385 x521 -335 x522 -71 x523 -804 x524 -837 x525 -754 x526 -161 x527 -908 x528 -317 x529 -539 x530 -852 x531 -729 x532 -256 x533 -712 x534 -950 x535 -113 x536 -523 x537 -545 x538 -525 x539 -231 x540 -554 x541 -636 x542 -265 x543 -195 x544 -550 x545 -602 x546 -749 x547 -947 x548 -859 x549 -16 x550 -744 x551 -205 x552 -93 x553 -64 x554 -876 x555 -999 x556 -295 x557 -245 x558 -2 x559 -749 x560 -647 x561 -278 x562 -400 x563 -89 x564 -273 x565 -561 x566 -793 x567 -785 x568 -78 x569 -161 x570 -399 x571 -306 x572 -937 x573 -906 x574 -439 x575 -827 x576 -495 x577 -113 x578 -721 x579 -652 x580 -176 x581 -729 x582 -802 x583 -645 x584 -694 x585 -120 x586 -120 x587 -491 x588 -537 x589 -40 x590 -977 x591 -85 x592 -956 x593 -401 x594 -512 x595 -229 x596 -56 x597 -699 x598 -870 x599 -193 x600 -202 x601 -610 x602 -49 x603 -177 x604 -700 x605 -810 x606 -867 x607 -172 x608 -245 x609 -354 x610 -722 x611 -555 x612 -853 x613 -333 x614 -967 x615 -479 x616 -314 x617 -587 x618 -477 x619 -526 x620 -904 x621 -638 x622 -832 x623 -552 x624 -952 x625 -912 x626 -544 x627 -520 x628 -808 x629 -314 x630 -928 x631 -526 x632 -659 x633 -167 x634 -215 x635 -393 x636 -108 x637 -608 x638 -827 x639 -505 x640 -708 x641 -232 x642 -69 x643 -123 x644 -22 x645 -295 x646 -500 x647 -974 x648 -347 x649 -757 x650 -33 x651 -755 x652 -584 x653 -956 x654 -477 x655 -625 x656 -376 x657 -543 x658 -475 x659 -470 x660 -862 x661 -777 x662 -773 x663 -658 x664 -235 x665 -94 x666 -430 x667 -436 x668 -368 x669 -335 x670 -105 x671 -272 x672 -961 x673 -313 x674 -557 x675 -209 x676 -982 x677 -292 x678 -582 x679 -360 x680 -615 x681 -137 x682 -912 x683 -494 x684 -844 x685 -693 x686 -458 x687 -646 x688 -366 x689 -27 x690 -973 x691 -323 x692 -494 x693 -157 x694 -936 x695 -585 x696 -55 x697 -26 x698 -817 x699 -352 x700 -2 x701 -499 x702 -58 x703 -563 x704 -878 x705 -136 x706 -798 x707 -463 x708 -810 x709 -488 x710 -783 x711 -863 x712 -737 x713 -181 x714 -805 x715 -524 x716 -769 x717 -902 x718 -868 x719 -385 x720 -312 x721 -686 x722 -299 x723 -372 x724 -43 x725 -577 x726 -524 x727 -665 x728 -268 x729 -823 x730 -85 x731 -609 x732 -671 x733 -481 x734 -362 x735 -847 x736 -809 x737 -697 x738 -557 x739 -211 x740 -998 x741 -118 x742 -492 x743 -632 x744 -366 x745 -908 x746 -476 x747 -128 x748 -842 x749 -634 x750 -727 x751 -551 x752 -297 x753 -869 x754 -48 x755 -924 x756 -938 x757 -546 x758 -895 x759 -972 x760 -925 x761 -497 x762 -421 x763 -497 x764 -698 x765 -597 x766 -469 x767 -72 x768 -461 x769 -192 x770 -469 x771 -856 x772 -461 x773 -107 x774 -784 x775 -718 x776 -768 x777 -890 x778 -146 x779 -486 x780 -293 x781 -958 x782 -327 x783 -44 x784 -373 x785 -789 x786 -992 x787 -120 x788 -502 x789 -644 x790 -787 x791 -839 x792 -38 x793 -700 x794 -38 x795 -390 x796 -56 x797 -994 x798 -127 x799 -866 x800 -198 x801 -472 x802 -195 x803 -875 x804 -12 x805 -10 x806 -753 x807 -623 x808 -524 x809 -779 x810 -714 x811 -994 x812 -660 x813 -646 x814 -848 x815 -971 x816 -208 x817 -464 x818 -312 x819 -866 x820 -613 x821 -690 x822 -981 x823 -918 x824 -507 x825 -732 x826 -851 x827 -347 x828 -181 x829 -901 x830 -204 x831 -856 x832 -249 x833 -583 x834 -338 x835 -327 x836 -206 x837 -472 x838 -458 x839 -989 x840 -415 x841 -139 x842 -433 x843 -873 x844 -755 x845 -756 x846 -62 x847 -649 x848 -462 x849 -699 x850 -235 x851 -760 x852 -384 x853 -104 x854 -858 x855 -813 x856 -616 x857 -245 x858 -120 x859 -252 x860 -101 x861 -473 x862 -576 x863 -847 x864 -784 x865 -152 x866 -583 x867 -32 x868 -105 x869 -864 x870 -319 x871 -269 x872 -668 x873 -206 x874 -330 x875 -742 x876 -368 x877 -823 x878 -53 x879 -66 x880 -244 x881 -819 x882 -222 x883 -213 x884 -894 x885 -19 x886 -828 x887 -655 x888 -441 x889 -147 x890 -202 x891 -70 x892 -219 x893 -603 x894 -999 x895 -451 x896 -537 x897 -543 x898 -717 x899 -450 x900 -279 x901 -238 x902 -851 x903 -507 x904 -503 x905 -144 x906 -993 x907 -837 x908 -844 x909 -409 x910 -120 x911 -706 x912 -381 x913 -226 x914 -252 x915 -622 x916 -345 x917 -471 x918 -816 x919 -233 x920 -571 x921 -986 x922 -532 x923 -644 x924 -715 x925 -470 x926 -60 x927 -720 x928 -742 x929 -160 x930 -872 x931 -106 x932 -892 x933 -184 x934 -628 x935 -202 x936 -508 x937 -54 x938 -803 x939 -163 x940 -534 x941 -102 x942 -709 x943 -269 x944 -404 x945 -198 x946 -746 x947 -286 x948 -702 x949 -191 x950 -17 x951 -415 x952 -153 x953 -918 x954 -858 x955 -890 x956 -219 x957 -839 x958 -829 x959 -122 x960 -349 x961 -23 x962 -541 x963 -907 x964 -765 x965 -760 x966 -908 x967 -216 x968 -983 x969 -906 x970 -627 x971 -531 x972 -744 x973 -268 x974 -782 x975 -790 x976 -535 x977 -521 x978 -643 x979 -769 x980 -649 x981 -39 x982 -301 x983 -429 x984 -839 x985 -780 x986 -465 x987 -141 x988 -829 x989 -521 x990 -20 x991 -692 x992 -617 x993 -968 x994 -943 x995 -257 x996 -622 x997 -778 x998 -104 x999 -175 x1000 ;
-438 x1 -916 x2 -450 x3 -925 x4 -336 x5 -278 x6 -497 x7 -170 x8 -394 x9 -336 x10 -856 x11 -439 x12 -475 x13 -120 x14 -906 x15 -74 x16 -851 x17 -613 x18 -496 x19 -217 x20 -722 x21 -69 x22 -137 x23 -753 x24 -970 x25 -417 x26 -786 x27 -840 x28 -211 x29 -877 x30 -843 x31 -810 x32 -707 x33 -604 x34 -446 x35 -504 x36 -359 x37 -49 x38 -412 x39 -280 x40 -579 x41 -872 x42 -806 x43 -965 x44 -970 x45 -250 x46 -629 x47 -278 x48 -83 x49 -223 x50 -270 x51 -317 x52 -208 x53 -422 x54 -326 x55 -174 x56 -844 x57 -800 x58 -509 x59 -703 x60 -416 x61 -779 x62 -90 x63 -862 x64 -634 x65 -530 x66 -755 x67 -989 x68 -362 x69 -730 x70 -407 x71 -227 x72 -930 x73 -799 x74 -387 x75 -325 x76 -242 x77 -205 x78 -229 x79 -674 x80 -173 x81 -706 x82 -184 x83 -572 x84 -124 x85 -64 x86 -156 x87 -369 x88 -77 x89 -913 x90 -753 x91 -809 x92 -512 x93 -675 x94 -552 x95 -995 x96 -405 x97 -323 x98 -94 x99 -432 x100 -453 x101 -157 x102 -254 x103 -145 x104 -563 x105 -329 x106 -866 x107 -259 x108 -191 x109 -258 x110 -142 x111 -800 x112 -167 x113 -217 x114 -209 x115 -194 x116 -530 x117 -542 x118 -944 x119 -361 x120 -419 x121 -838 x122 -289 x123 -252 x124 -198 x125 -864 x126 -369 x127 -644 x128 -474 x129 -593 x130 -50 x131 -515 x132 -771 x133 -375 x134 -973 x135 -884 x136 -106 x137 -387 x138 -840 x139 -732 x140 -980 x141 -967 x142 -932 x143 -29 x144 -628 x145 -951 x146 -789 x147 -188 x148 -70 x149 -237 x150 -87 x151 -160 x152 -881 x153 -932 x154 -921 x155 -691 x156 -759 x157 -894 x158 -57 x159 -694 x160 -636 x161 -769 x162 -996 x163 -284 x164 -505 x165 -740 x166 -160 x167 -16 x168 -580 x169 -119 x170 -128 x171 -139 x172 -214 x173 -736 x174 -434 x175 -725 x176 -376 x177 -218 x178 -217 x179 -549 x180 -731 x181 -160 x182 -267 x183 -716 x184 -91 x185 -672 x186 -438 x187 -307 x188 -102 x189 -338 x190 -323 x191 -669 x192 -455 x193 -319 x194 -631 x195 -678 x196 -338 x197 -215 x198 -218 x199 -243 x200 -483 x201 -379 x202 -534 x203 -340 x204 -80 x205 -705 x206 -694 x207 -636 x208 -471 x209 -109 x210 -832 x211 -969 x212 -685 x213 -620 x214 -569 x215 -111 x216 -541 x217 -660 x218 -731 x219 -519 x220 -41 x221 -72 x222 -885 x223 -748 x224 -503 x225 -640 x226 -511 x227 -270 x228 -179 x229 -644 x230 -833 x231 -671 x232 -485 x233 -65 x234 -743 x235 -771 x236 -207 x237 -268 x238 -787 x239 -989 x240 -150 x241 -836 x242 -631 x243 -389 x244 -906 x245 -996 x246 -149 x247 -837 x248 -907 x249 -86 x250 -269 x251 -187 x252 -618 x253 -147 x254 -106 x255 -152 x256 -993 x257 -742 x258 -953 x259 -615 x260 -920 x261 -417 x262 -575 x263 -569 x264 -357 x265 -486 x266 -310 x267 -69 x268 -247 x269 -680 x270 -124 x271 -278 x272 -471 x273 -403 x274 -449 x275 -276 x276 -172 x277 -629 x278 -890 x279 -612 x280 -737 x281 -96 x282 -39 x283 -595 x284 -189 x285 -392 x286 -509 x287 -166 x288 -7 x289 -326 x290 -744 x291 -501 x292 -4 x293 -87 x294 -745 x295 -549 x296 -439 x297 -447 x298 -632 x299 -973 x300 -811 x301 -327 x302 -775 x303 -857 x304 -200 x305 -958 x306 -314 x307 -970 x308 -928 x309 -699 x310 -398 x311 -150 x312 -20 x313 -424 x314 -5 x315 -539 x316 -448 x317 -18 x318 -827 x319 -879 x320 -423 x321 -533 x322 -289 x323 -940 x324 -796 x325 -396 x326 -908 x327 -303 x328 -551 x329 -783 x330 -440 x331 -319 x332 -633 x333 -117 x334 -718 x335 -362 x336 -172 x337 -656 x338 -239 x339 -395 x340 -241 x341 -361 x342 -988 x343 -832 x344 -959 x345 -440 x346 -676 x347 -616 x348 -205 x349 -317 x350 -601 x351 -890 x352 -164 x353 -53 x354 -431 x355 -488 x356 -836 x357 -564 x358 -290 x359 -739 x360 -313 x361 -393 x362 -763 x363 -128 x364 -634 x365 -103 x366 -638 x367 -303 x368 -303 x369 -511 x370 -723 x371 -148 x372 -788 x373 -315 x374 -79 x375 -686 x376 -806 x377 -606 x378 -55 x379 -581 x380 -464 x381 -535 x382 -897 x383 -218 x384 -370 x385 -44 x386 -414 x387 -670 x388 -415 x389 -674 x390 -984 x391 -788 x392 -714 x393 -19 x394 -572 x395 -82 x396 -189 x397 -9 x398 -355 x399 -498 x400 -805 x401 -902 x402 -651 x403 -32 x404 -813 x405 -486 x406 -5 x407 -460 x408 -725 x409 -956 x410 -123 x411 -927 x412 -710 x413 -913 x414 -864 x415 -26 x416 -45 x417 -412 x418 -515 x419 -217 x420 -498 x421 -571 x422 -810 x423 -911 x424 -189 x425 -847 x426 -543 x427 -979 x428 -764 x429 -566 x430 -417 x431 -313 x432 -826 x433 -521 x434 -690 x435 -971 x436 -319 x437 -110 x438 -136 x439 -237 x440 -360 x441 -960 x442 -939 x443 -897 x444 -987 x445 -178 x446 -114 x447 -983 x448 -762 x449 -787 x450 -738 x451 -438 x452 -553 x453 -338 x454 -51 x455 -408 x456 -893 x457 -651 x458 -97 x459 -335 x460 -443 x461 -962 x462 -844 x463 -477 x464 -603 x465 -876 x466 -356 x467 -666 x468 -287 x469 -166 x470 -206 x471 -903 x472 -731 x473 -357 x474 -443 x475 -319 x476 -555 x477 -900 x478 -659 x479 -357 x480 -947 x481 -411 x482 -989 x483 -143 x484 -983 x485 -148 x486 -793 x487 -410 x488 -224 x489 -74 x490 -653 x491 -696 x492 -256 x493 -274 x494 -936 x495 -477 x496 -322 x497 -875 x498 -94 x499 -408 x500 -457 x501 -874 x502 -417 x503 -204 x504 -707 x505 -766 x506 -248 x507 -69 x508 -777 x509 -611 x510 -255 x511 -959 x512 -270 x513 -594 x514 -314 x515 -898 x516 -377 x517 -421 x518 -103 x519 -315 x520 -385 x521 -335 x522 -71 x523 -804 x524 -837 x525 -754 x526 -161 x527 -908 x528 -317 x529 -539 x530 -852 x531 -729 x532 -256 x533 -712 x534 -950 x535 -113 x536 -523 x537 -545 x538 -525 x539 -231 x540 -554 x541 -636 x542 -265 x543 -195 x544 -550 x545 -602 x546 -749 x547 -947 x548 -859 x549 -16 x550 -744 x551 -205 x552 -93 x553 -64 x554 -876 x555 -999 x556 -295 x557 -245 x558 -2 x559 -749 x560 -647 x561 -278 x562 -400 x563 -89 x564 -273 x565 -561 x566 -793 x567 -785 x568 -78 x569 -161 x570 -399 x571 -306 x572 -937 x573 -906 x574 -439 x575 -827 x576 -495 x577 -113 x578 -721 x579 -652 x580 -176 x581 -729 x582 -802 x583 -645 x584 -694 x585 -120 x586 -120 x587 -491 x588 -537 x589 -40 x590 -977 x591 -85 x592 -956 x593 -401 x594 -512 x595 -229 x596 -56 x597 -699 x598 -870 x599 -193 x600 -202 x601 -610 x602 -49 x603 -177 x604 -700 x605 -810 x606 -867 x607 -172 x608 -245 x609 -354 x610 -722 x611 -555 x612 -853 x613 -333 x614 -967 x615 -479 x616 -314 x617 -587 x618 -477 x619 -526 x620 -904 x621 -638 x622 -832 x623 -552 x624 -952 x625 -912 x626 -544 x627 -520 x628 -808 x629 -314 x630 -928 x631 -526 x632 -659 x633 -167 x634 -215 x635 -393 x636 -108 x637 -608 x638 -827 x639 -505 x640 -708 x641 -232 x642 -69 x643 -123 x644 -22 x645 -295 x646 -500 x647 -974 x648 -347 x649 -757 x650 -33 x651 -755 x652 -584 x653 -956 x654 -477 x655 -625 x656 -376 x657 -543 x658 -475 x659 -470 x660 -862 x661 -777 x662 -773 x663 -658 x664 -235 x665 -94 x666 -430 x667 -436 x668 -368 x669 -335 x670 -105 x671 -272 x672 -961 x673 -313 x674 -557 x675 -209 x676 -982 x677 -292 x678 -582 x679 -360 x680 -615 x681 -137 x682 -912 x683 -494 x684 -844 x685 -693 x686 -458 x687 -646 x688 -366 x689 -27 x690 -973 x691 -323 x692 -494 x693 -157 x694 -936 x695 -585 x696 -55 x697 -26 x698 -817 x699 -352 x700 -2 x701 -499 x702 -58 x703 -563 x704 -878 x705 -136 x706 -798 x707 -463 x708 -810 x709 -488 x710 -783 x711 -863 x712 -737 x713 -181 x714 -805 x715 -524 x716 -769 x717 -902 x718 -868 x719 -385 x720 -312 x721 -686 x722 -299 x723 -372 x724 -43 x725 -577 x726 -524 x727 -665 x728 -268 x729 -823 x730 -85 x731 -609 x732 -671 x733 -481 x734 -362 x735 -847 x736 -809 x737 -697 x738 -557 x739 -211 x740 -998 x741 -118 x742 -492 x743 -632 x744 -366 x745 -908 x746 -476 x747 -128 x748 -842 x749 -634 x750 -727 x751 -551 x752 -297 x753 -869 x754 -48 x755 -924 x756 -938 x757 -546 x758 -895 x759 -972 x760 -925 x761 -497 x762 -421 x763 -497 x764 -698 x765 -597 x766 -469 x767 -72 x768 -461 x769 -192 x770 -469 x771 -856 x772 -461 x773 -107 x774 -784 x775 -718 x776 -768 x777 -890 x778 -146 x779 -486 x780 -293 x781 -958 x782 -327 x783 -44 x784 -373 x785 -789 x786 -992 x787 -120 x788 -502 x789 -644 x790 -787 x791 -839 x792 -38 x793 -700 x794 -38 x795 -390 x796 -56 x797 -994 x798 -127 x799 -866 x800 -198 x801 -472 x802 -195 x803 -875 x804 -12 x805 -10 x806 -753 x807 -623 x808 -524 x809 -779 x810 -714 x811 -994 x812 -660 x813 -646 x814 -848 x815 -971 x816 -208 x817 -464 x818 -312 x819 -866 x820 -613 x821 -690 x822 -981 x823 -918 x824 -507 x825 -732 x826 -851 x827 -347 x828 -181 x829 -901 x830 -204 x831 -856 x832 -249 x833 -583 x834 -338 x835 -327 x836 -206 x837 -472 x838 -458 x839 -989 x840 -415 x841 -139 x842 -433 x843 -873 x844 -755 x845 -756 x846 -62 x847 -649 x848 -462 x849 -699 x850 -235 x851 -760 x852 -384 x853 -104 x854 -858 x855 -813 x856 -616 x857 -245 x858 -120 x859 -252 x860 -101 x861 -473 x862 -576 x863 -847 x864 -784 x865 -152 x866 -583 x867 -32 x868 -105 x869 -864 x870 -319 x871 -269 x872 -668 x873 -206 x874 -330 x875 -742 x876 -368 x877 -823 x878 -53 x879 -66 x880 -244 x881 -819 x882 -222 x883 -213 x884 -894 x885 -19 x886 -828 x887 -655 x888 -441 x889 -147 x890 -202 x891 -70 x892 -219 x893 -603 x894 -999 x895 -451 x896 -537 x897 -543 x898 -717 x899 -450 x900 -279 x901 -238 x902 -851 x903 -507 x904 -503 x905 -144 x906 -993 x907 -837 x908 -844 x909 -409 x910 -120 x911 -706 x912 -381 x913 -226 x914 -252 x915 -622 x916 -345 x917 -471 x918 -816 x919 -233 x920 -571 x921 -986 x922 -532 x923 -644 x924 -715 x925 -470 x926 -60 x927 -720 x928 -742 x929 -160 x930 -872 x931 -106 x932 -892 x933 -184 x934 -628 x935 -202 x936 -508 x937 -54 x938 -803 x939 -163 x940 -534 x941 -102 x942 -709 x943 -269 x944 -404 x945 -198 x946 -746 x947 -286 x948 -702 x949 -191 x950 -17 x951 -415 x952 -153 x953 -918 x954 -858 x955 -890 x956 -219 x957 -839 x958 -829 x959 -122 x960 -349 x961 -23 x962 -541 x963 -907 x964 -765 x965 -760 x966 -908 x967 -216 x968 -983 x969 -906 x970 -627 x971 -531 x972 -744 x973 -268 x974 -782 x975 -790 x976 -535 x977 -521 x978 -643 x979 -769 x980 -649 x981 -39 x982 -301 x983 -429 x984 -839 x985 -780 x986 -465 x987 -141 x988 -829 x989 -521 x990 -20 x991 -692 x992 -617 x993 -968 x994 -943 x995 -257 x996 -622 x997 -778 x998 -104 x999 -175 x1000 >= -378088 ;